c description: Random 3-CNF over 11 variables and 22 clauses
p cnf 11 22
-2 9 -11 0
-4 -6 8 0
-1 4 -6 0
2 9 -11 0
5 6 11 0
2 4 -5 0
1 -5 11 0
2 -6 -11 0
6 8 -9 0
-2 -5 6 0
-1 7 -11 0
-4 7 11 0
-6 7 8 0
-5 6 -7 0
1 -9 11 0
-3 5 11 0
3 9 10 0
-2 -6 -11 0
-2 -4 9 0
-7 8 -9 0
2 3 6 0
6 -7 -10 0